SAT
Model:
1 -> false
2 -> true
3 -> false
4 -> false
5 -> false
6 -> false
7 -> false
8 -> true
9 -> true
10 -> true
11 -> false
12 -> false
13 -> false
14 -> true
15 -> false
16 -> true
17 -> false
18 -> false
19 -> true
20 -> false
21 -> false
22 -> false
23 -> true
24 -> true
25 -> true
26 -> true
27 -> false
28 -> false
29 -> true
30 -> true
31 -> true
32 -> false
33 -> false
34 -> false
35 -> false
36 -> true
37 -> false
38 -> true
39 -> false
40 -> true
41 -> true
42 -> false
43 -> true
44 -> true
45 -> false
46 -> false
47 -> false
48 -> true
49 -> true
50 -> true
